param n := 2;

param m := 2;

param K := 20;

param a :=
1 	 0.800745
2 	 0.968262
;
 param A :=
[1, *, *]:  1	2	:=
1	-0.373152	0.752778	
2	0.384645	0.789213	

[2, *, *]:  1	2	:=
1	-0.829912	-0.660339	
2	-0.921890	0.756285	
;